#######################################################################
#
# This file contains crystal structure data downloaded from the
# Cambridge Structural Database (CSD) hosted by the Cambridge
# Crystallographic Data Centre (CCDC).
#
# Full information about CCDC data access policies and citation
# guidelines are available at http://www.ccdc.cam.ac.uk/access/V1
#
# Audit and citation data items may have been added by the CCDC.
# Please retain this information to preserve the provenance of
# this file and to allow appropriate attribution of the data.
#
#######################################################################

data_RATDIZ
#This CIF has been generated from an entry in the Cambridge Structural Database
_database_code_depnum_ccdc_archive 'CCDC 1246903'
_database_code_CSD               RATDIZ
loop_
_citation_id
_citation_doi
_citation_year
1 10.1021/ic961264i 1997
_audit_creation_method           'Created from the CSD'
_audit_update_record
;
2020-12-13 downloaded from the CCDC.
;
_ccdc_depnum_archive             970528P
_database_code_NBS               669084
_chemical_formula_moiety         'C1 H18 Co1 N5 2+,O6 S2 2-'
_chemical_name_systematic        'Penta-ammine-methyl-cobalt(iii) dithionate'
_chemical_absolute_configuration unk
_diffrn_ambient_temperature      122
_exptl_crystal_density_diffrn    1.868
#These two values have been output from a single CSD field.
_refine_ls_R_factor_gt           0.0391
_refine_ls_wR_factor_gt          0.0391
_diffrn_radiation_probe          x-ray
_symmetry_cell_setting           monoclinic
_symmetry_space_group_name_H-M   'P 21/n'
_symmetry_Int_Tables_number      14
_space_group_name_Hall           '-P 2yn'
loop_
_symmetry_equiv_pos_site_id
_symmetry_equiv_pos_as_xyz
1 x,y,z
2 1/2+x,1/2-y,1/2+z
3 -x,-y,-z
4 1/2-x,1/2+y,1/2-z
_cell_length_a                   6.4856(9)
_cell_length_b                   18.0720(11)
_cell_length_c                   9.7854(14)
_cell_angle_alpha                90
_cell_angle_beta                 98.280(13)
_cell_angle_gamma                90
_cell_volume                     1134.97
_exptl_crystal_colour            orange
_cell_formula_units_Z            4
loop_
_atom_site_label
_atom_site_type_symbol
_atom_site_fract_x
_atom_site_fract_y
_atom_site_fract_z
Co1 Co 0.26748(3) 0.124564(11) 0.76388(2)
C1 C 0.5576(2) 0.12764(10) 0.85999(15)
N1 N 0.3467(2) 0.05006(7) 0.63384(13)
N2 N 0.3263(2) 0.20707(7) 0.64298(13)
N3 N 0.1860(3) 0.19768(8) 0.89563(14)
N4 N 0.2094(2) 0.04390(8) 0.88954(13)
N5 N -0.0379(2) 0.12141(8) 0.65651(13)
H1 H 0.5553(45) 0.1287(16) 0.9544(30)
H2 H 0.6258(45) 0.0859(16) 0.8418(28)
H3 H 0.6256(39) 0.1711(14) 0.8366(25)
H4 H 0.4246(40) 0.0145(14) 0.6790(26)
H5 H 0.2497(47) 0.0254(15) 0.5945(29)
H6 H 0.4121(49) 0.0670(17) 0.5733(31)
H7 H 0.4164(45) 0.2408(16) 0.6840(28)
H8 H 0.2165(47) 0.2306(15) 0.6080(28)
H9 H 0.3887(48) 0.1979(16) 0.5797(30)
H10 H 0.0986(48) 0.2268(17) 0.8555(31)
H11 H 0.1038(63) 0.1809(22) 0.9480(40)
H12 H 0.2791(63) 0.2265(21) 0.9310(38)
H14 H 0.2349(58) 0.0511(20) 0.9751(38)
H15 H 0.2496(60) 0.0000(21) 0.8708(38)
H16 H -0.0851(46) 0.0832(17) 0.6638(28)
H18 H -0.1103(50) 0.1565(18) 0.6818(30)
S1 S 0.40477(5) 0.13293(2) 0.26283(3)
S2 S 0.08306(5) 0.11762(2) 0.27772(3)
O1 O 0.4136(2) 0.20393(6) 0.19342(11)
O2 O 0.5116(2) 0.13249(6) 0.40420(10)
O3 O 0.4552(2) 0.07019(6) 0.18134(11)
O4 O -0.0160(2) 0.11865(7) 0.13479(11)
O5 O 0.0298(2) 0.17989(6) 0.36001(12)
O6 O 0.0730(2) 0.04648(6) 0.34663(12)

#END
